output ([(((("\n"++problem_name)++"\n")++"L:")++show(L))++"\n"]++[if problem[i,j]==0 then "*" else show(letters[fix(L[problem[i,j]])]) endif++if j==cols then "\n" else "" endif | i in 1..rows, j in 1..cols, ])++["\n"];
int: rows = 15;
int: cols = 15;
array [1..rows,1..cols] of int: problem = [|1,2,3,0,4,5,6,7,0,8,9,10,11,12,13|14,15,16,17,18,19,20,21,0,22,23,24,25,26,27|28,29,30,31,32,33,34,35,36,37,38,39,40,41,42|43,44,45,46,47,0,48,49,50,51,52,0,53,54,55|0,0,0,56,57,58,0,59,60,61,62,63,0,0,0|64,65,66,0,67,68,69,70,71,0,72,73,74,75,76|77,78,79,80,0,81,82,83,0,84,85,86,87,88,89|90,91,92,93,94,95,96,97,98,99,100,101,102,103,104|105,106,107,108,109,110,0,111,112,113,0,114,115,116,117|118,119,120,121,122,0,123,124,125,126,127,0,128,129,130|0,0,0,131,132,133,134,135,0,136,137,138,0,0,0|139,140,141,0,142,143,144,145,146,0,147,148,149,150,151|152,153,154,155,156,157,158,159,160,161,162,163,164,165,166|167,168,169,170,171,172,0,173,174,175,176,177,178,179,180|181,182,183,184,185,186,0,187,188,189,190,0,191,192,193|];
int: num_letters = 26;
array [1..num_letters] of string: letters = ["a","b","c","d","e","f","g","h","i","j","k","l","m","n","o","p","q","r","s","t","u","v","w","x","y","z"];
int: N = 193;
array [0..N] of int: L;
string: problem_name = "15.04, 15 x 15";
